1 3 100 475993.76
1 3 200 477245.19
1 3 300 484020.72
2 3 100 463829.84
2 3 200 474452.12
2 3 300 440733.75
3 3 100 455233.87
3 3 200 479518.01
3 3 300 437760.58
4 3 100 457626.26
4 3 200 463446.23
4 3 300 457613.11
5 3 100 445674.66
5 3 200 465967.69
5 3 300 456517.52
